Minimize
  - 27 y_0 - 49 y_1 - 27 y_2 - 31 y_3 - 44 y_4 - 41 y_5 - 45 y_6 - 40 y_7
   - 31 y_8 - 15 y_9 - 20 y_10 - 20 y_11 - 7 y_12 - 33 y_13 - 29 y_14
   - 27 y_15 - 17 y_17 - 33 y_18 - 53 y_19 + 34 x_0_2 + 103 x_0_4
   + 57 x_0_5 + 42 x_0_6 + 72 x_0_7 + 59 x_0_8 + 24 x_0_9 + 44 x_0_10
   + 42 x_0_12 + 86 x_0_13 + 53 x_0_16 + 69 x_0_17 + 68 x_0_18 + 46 x_1_2
   + 92 x_1_4 + 25 x_1_5 + 25 x_1_6 + 58 x_1_11 + 85 x_1_12 + 42 x_1_14
   + 84 x_1_15 + 98 x_1_16 + 93 x_1_17 + 13 x_1_19 + 32 x_2_3 + 70 x_2_4
   + 30 x_2_5 + 25 x_2_8 + 36 x_2_9 + 19 x_2_10 + 13 x_2_11 + 40 x_2_12
   + 6 x_2_14 + 47 x_2_15 + 53 x_2_16 + 50 x_2_17 + 35 x_2_18 + 53 x_2_19
   + 102 x_3_4 + 67 x_3_7 + 34 x_3_9 + 47 x_3_10 + 38 x_3_11 + 50 x_3_12
   + 87 x_3_13 + 36 x_3_14 + 77 x_3_15 + 63 x_3_16 + 66 x_3_18 + 60 x_3_19
   + 45 x_4_8 + 94 x_4_9 + 60 x_4_10 + 68 x_4_11 + 23 x_4_13 + 89 x_4_16
   + 36 x_4_18 + 42 x_5_6 + 25 x_5_7 + 30 x_5_8 + 44 x_5_10 + 41 x_5_11
   + 62 x_5_13 + 25 x_5_14 + 82 x_5_16 + 36 x_5_18 + 26 x_5_19 + 66 x_6_7
   + 63 x_6_9 + 64 x_6_10 + 57 x_6_11 + 97 x_6_13 + 45 x_6_14 + 91 x_6_16
   + 95 x_6_17 + 73 x_6_18 + 38 x_6_19 + 18 x_7_8 + 72 x_7_9 + 40 x_7_10
   + 43 x_7_11 + 40 x_7_13 + 32 x_7_14 + 40 x_7_15 + 79 x_7_16 + 58 x_7_17
   + 17 x_7_18 + 48 x_7_19 + 55 x_8_9 + 22 x_8_10 + 51 x_8_12 + 34 x_8_13
   + 21 x_8_14 + 29 x_8_15 + 42 x_8_17 + 56 x_8_19 + 34 x_9_10 + 19 x_9_12
   + 74 x_9_13 + 42 x_9_14 + 51 x_9_17 + 9 x_10_11 + 29 x_10_12
   + 40 x_10_16 + 30 x_10_17 + 29 x_10_18 + 69 x_10_19 + 29 x_11_12
   + 50 x_11_13 + 17 x_11_14 + 40 x_11_15 + 41 x_11_16 + 38 x_11_17
   + 34 x_11_18 + 65 x_11_19 + 50 x_12_15 + 13 x_12_16 + 34 x_12_17
   + 57 x_12_18 + 93 x_12_19 + 12 x_13_15 + 33 x_13_17 + 87 x_13_19
   + 46 x_14_15 + 58 x_14_16 + 31 x_14_18 + 49 x_14_19 + 54 x_15_16
   + 22 x_15_17 + 24 x_15_18 + 34 x_16_17 + 65 x_16_18 + 106 x_16_19
   + 106 x_16_19 + 106 x_16_19 + 106 x_16_19 + 106 x_16_19 + 106 x_16_19
   + 106 x_16_19 + 106 x_16_19 + 106 x_16_19 + 106 x_16_19 + 106 x_16_19
   + 106 x_16_19 + 106 x_16_19 + 106 x_16_19 + 106 x_16_19 + 106 x_16_19
   + 106 x_16_19 + 106 x_16_19 + 106 x_16_19 + 106 x_16_19 + 106 x_16_19
   + 106 x_16_19 + 106 x_16_19 + 106 x_16_19 + 106 x_16_19 + 106 x_16_19
   + 106 x_16_19 + 106 x_16_19 + 106 x_16_19 + 106 x_16_19 + 106 x_16_19
   + 106 x_16_19 + 106 x_16_19 + 106 x_16_19 + 106 x_16_19 + 106 x_16_19
   + 106 x_16_19 + 106 x_16_19 + 106 x_16_19 + 106 x_16_19 + 106 x_16_19
   + 106 x_16_19 + 106 x_16_19 + 106 x_16_19 + 106 x_16_19 + 106 x_16_19
   + 106 x_16_19 + 106 x_16_19 + 106 x_16_19 + 106 x_16_19 + 106 x_16_19
   + 106 x_16_19 + 106 x_16_19 + 106 x_16_19 + 106 x_16_19 + 106 x_16_19
   + 106 x_16_19 + 106 x_16_19 + 106 x_16_19 + 106 x_16_19 + 106 x_16_19
   + 106 x_16_19 + 106 x_16_19 + 106 x_16_19 + 106 x_16_19 + 106 x_16_19
   + 106 x_16_19 + 106 x_16_19 + 106 x_16_19 + 106 x_16_19 + 106 x_16_19
   + 106 x_16_19 + 106 x_16_19 + 106 x_16_19 + 106 x_16_19 + 106 x_16_19
   + 106 x_16_19 + 106 x_16_19 + 106 x_16_19 + 106 x_16_19 + 106 x_16_19
   + 106 x_16_19 + 106 x_16_19 + 106 x_16_19 + 106 x_16_19 + 106 x_16_19
   + 106 x_16_19 + 106 x_16_19 + 106 x_16_19 + 106 x_16_19 + 106 x_16_19
   + 106 x_16_19 + 106 x_16_19 + 106 x_16_19 + 106 x_16_19 + 106 x_16_19
   + 106 x_16_19 + 106 x_16_19 + 106 x_16_19 + 106 x_16_19 + 106 x_16_19
   + 106 x_16_19 + 106 x_16_19 + 106 x_16_19 + 106 x_16_19 + 106 x_16_19
   + 106 x_16_19 + 106 x_16_19 + 106 x_16_19 + 106 x_16_19 + 106 x_16_19
   + 106 x_16_19 + 106 x_16_19 + 106 x_16_19 + 106 x_16_19 + 106 x_16_19
   + 106 x_16_19 + 106 x_16_19 + 106 x_16_19 + 106 x_16_19 + 106 x_16_19
   + 106 x_16_19 + 106 x_16_19 + 106 x_16_19 + 106 x_16_19 + 106 x_16_19
   + 106 x_16_19 + 106 x_16_19 + 106 x_16_19 + 106 x_16_19 + 106 x_16_19
   + 106 x_16_19 + 106 x_16_19 + 106 x_16_19 + 106 x_16_19 + 106 x_16_19
   + 106 x_16_19 + 106 x_16_19 + 106 x_16_19 + 106 x_16_19 + 106 x_16_19
   + 106 x_16_19 + 106 x_16_19 + 106 x_16_19 + 106 x_16_19 + 106 x_16_19
   + 106 x_16_19 + 106 x_16_19 + 106 x_16_19 + 106 x_16_19 + 106 x_16_19
   + 106 x_16_19 + 106 x_16_19 + 106 x_16_19 + 106 x_16_19 + 106 x_16_19
   + 106 x_16_19 + 106 x_16_19 + 106 x_16_19 + 106 x_16_19 + 106 x_16_19
   + 106 x_16_19 + 106 x_16_19 + 106 x_16_19 + 106 x_16_19 + 106 x_16_19
   + 106 x_16_19 + 106 x_16_19 + 106 x_16_19 + 106 x_16_19 + 106 x_16_19
   + 106 x_16_19 + 106 x_16_19 + 106 x_16_19 + 106 x_16_19 + 106 x_16_19
   + 106 x_16_19 + 106 x_16_19 + 106 x_16_19 + 106 x_16_19 + 106 x_16_19
   + 106 x_16_19 + 106 x_16_19 + 106 x_16_19 + 106 x_16_19 + 106 x_16_19
   + 106 x_16_19 + 106 x_16_19 + 106 x_16_19 + 106 x_16_19 + 106 x_16_19
   + 106 x_16_19 + 106 x_16_19 + 106 x_16_19 + 106 x_16_19 + 106 x_16_19
   + 106 x_16_19 + 106 x_16_19 + 106 x_16_19 + 106 x_16_19 + 106 x_16_19
   + 106 x_16_19 + 106 x_16_19 + 106 x_16_19 + 106 x_16_19 + 106 x_16_19
   + 106 x_16_19 + 106 x_16_19 + 106 x_16_19 + 106 x_16_19 + 106 x_16_19
   + 106 x_16_19 + 106 x_16_19 + 106 x_16_19 + 106 x_16_19 + 106 x_16_19
   + 106 x_16_19 + 106 x_16_19 + 106 x_16_19 + 106 x_16_19 + 106 x_16_19
   + 106 x_16_19 + 106 x_16_19 + 106 x_16_19 + 106 x_16_19 + 106 x_16_19
   + 106 x_16_19 + 106 x_16_19 + 106 x_16_19 + 106 x_16_19 + 106 x_16_19
   + 106 x_16_19 + 106 x_16_19 + 106 x_16_19 + 106 x_16_19 + 106 x_16_19
   + 106 x_16_19 + 106 x_16_19 + 106 x_16_19 + 106 x_16_19 + 106 x_16_19
   + 106 x_16_19 + 106 x_16_19 + 106 x_16_19 + 106 x_16_19 + 106 x_16_19
   + 106 x_16_19 + 106 x_16_19 + 106 x_16_19 + 106 x_16_19 + 106 x_16_19
   + 106 x_16_19 + 106 x_16_19 + 106 x_16_19 + 106 x_16_19 + 106 x_16_19
   + 106 x_16_19 + 106 x_16_19 + 106 x_16_19 + 106 x_16_19 + 106 x_16_19
   + 106 x_16_19 + 106 x_16_19 + 106 x_16_19 + 106 x_16_19 + 106 x_16_19
   + 106 x_16_19 + 106 x_16_19 + 106 x_16_19 + 106 x_16_19 + 106 x_16_19
   + 106 x_16_19 + 106 x_16_19 + 106 x_16_19 + 106 x_16_19 + 106 x_16_19
   + 106 x_16_19 + 106 x_16_19 + 106 x_16_19 + 106 x_16_19 + 106 x_16_19
   + 106 x_16_19 + 106 x_16_19 + 106 x_16_19 + 106 x_16_19 + 106 x_16_19
   + 106 x_16_19 + 106 x_16_19 + 106 x_16_19 + 106 x_16_19 + 106 x_16_19
   + 106 x_16_19 + 106 x_16_19 + 106 x_16_19 + 106 x_16_19 + 106 x_16_19
   + 106 x_16_19 + 106 x_16_19 + 106 x_16_19 + 106 x_16_19 + 106 x_16_19
   + 106 x_16_19 + 106 x_16_19 + 106 x_16_19 + 106 x_16_19 + 106 x_16_19
   + 106 x_16_19 + 106 x_16_19 + 106 x_16_19 + 106 x_16_19 + 106 x_16_19
   + 106 x_16_19 + 106 x_16_19 + 106 x_16_19 + 106 x_16_19 + 106 x_16_19
   + 106 x_16_19 + 106 x_16_19 + 106 x_16_19 + 106 x_16_19 + 106 x_16_19
   + 106 x_16_19 + 106 x_16_19 + 106 x_16_19 + 106 x_16_19 + 106 x_16_19
   + 106 x_16_19 + 106 x_16_19 + 106 x_16_19 + 106 x_16_19 + 106 x_16_19
   + 106 x_16_19 + 106 x_16_19 + 106 x_16_19 + 106 x_16_19 + 106 x_16_19
   + 106 x_16_19 + 106 x_16_19 + 106 x_16_19 + 106 x_16_19 + 106 x_16_19
   + 106 x_16_19 + 106 x_16_19 + 106 x_16_19 + 106 x_16_19 + 106 x_16_19
   + 106 x_16_19 + 106 x_16_19 + 106 x_16_19 + 106 x_16_19 + 106 x_16_19
   + 106 x_16_19 + 106 x_16_19 + 106 x_16_19 + 106 x_16_19 + 106 x_16_19
   + 106 x_16_19 + 106 x_16_19 + 106 x_16_19 + 106 x_16_19 + 106 x_16_19
   + 106 x_16_19 + 106 x_16_19 + 106 x_16_19 + 106 x_16_19 + 106 x_16_19
   + 106 x_16_19 + 106 x_16_19 + 106 x_16_19 + 106 x_16_19 + 106 x_16_19
   + 106 x_16_19 + 106 x_16_19 + 106 x_16_19 + 106 x_16_19 + 106 x_16_19
   + 106 x_16_19 + 106 x_16_19 + 106 x_16_19 + 106 x_16_19 + 106 x_16_19
   + 106 x_16_19 + 106 x_16_19 + 106 x_16_19 + 106 x_16_19 + 106 x_16_19
   + 106 x_16_19 + 106 x_16_19 + 106 x_16_19 + 106 x_16_19 + 106 x_16_19
   + 106 x_16_19 + 106 x_16_19 + 106 x_16_19 + 106 x_16_19 + 106 x_16_19
   + 106 x_16_19 + 106 x_16_19 + 106 x_16_19 + 106 x_16_19 + 106 x_16_19
   + 106 x_16_19 + 106 x_16_19 + 106 x_16_19 + 106 x_16_19 + 106 x_16_19
   + 106 x_16_19 + 106 x_16_19 + 106 x_16_19 + 106 x_16_19 + 106 x_16_19
   + 106 x_16_19 + 106 x_16_19 + 106 x_16_19 + 106 x_16_19 + 106 x_16_19
   + 106 x_16_19 + 106 x_16_19 + 106 x_16_19 + 106 x_16_19 + 106 x_16_19
   + 106 x_16_19 + 106 x_16_19 + 106 x_16_19 + 106 x_16_19 + 106 x_16_19
   + 106 x_16_19 + 106 x_16_19 + 106 x_16_19 + 106 x_16_19 + 106 x_16_19
   + 106 x_16_19 + 106 x_16_19 + 106 x_16_19 + 106 x_16_19 + 106 x_16_19
   + 106 x_16_19 + 106 x_16_19 + 106 x_16_19 + 106 x_16_19 + 106 x_16_19
   + 106 x_16_19 + 106 x_16_19 + 106 x_16_19 + 106 x_16_19 + 106 x_16_19
   + 106 x_16_19 + 106 x_16_19 + 106 x_16_19 + 106 x_16_19 + 106 x_16_19
   + 106 x_16_19 + 106 x_16_19 + 106 x_16_19 + 106 x_16_19 + 106 x_16_19
   + 106 x_16_19 + 106 x_16_19 + 106 x_16_19 + 106 x_16_19 + 106 x_16_19
   + 106 x_16_19 + 106 x_16_19 + 106 x_16_19 + 106 x_16_19 + 106 x_16_19
   + 106 x_16_19 + 106 x_16_19 + 106 x_16_19 + 106 x_16_19 + 106 x_16_19
   + 106 x_16_19 + 106 x_16_19 + 106 x_16_19 + 106 x_16_19 + 106 x_16_19
   + 106 x_16_19 + 106 x_16_19 + 106 x_16_19 + 106 x_16_19 + 106 x_16_19
   + 106 x_16_19 + 106 x_16_19 + 106 x_16_19 + 106 x_16_19 + 106 x_16_19
   + 106 x_16_19 + 106 x_16_19 + 106 x_16_19 + 106 x_16_19 + 106 x_16_19
   + 106 x_16_19 + 106 x_16_19 + 106 x_16_19 + 106 x_16_19 + 106 x_16_19
   + 106 x_16_19 + 106 x_16_19 + 106 x_16_19 + 106 x_16_19 + 106 x_16_19
   + 106 x_16_19 + 106 x_16_19 + 106 x_16_19 + 106 x_16_19 + 106 x_16_19
   + 106 x_16_19 + 106 x_16_19 + 106 x_16_19 + 106 x_16_19 + 106 x_16_19
   + 106 x_16_19 + 106 x_16_19 + 106 x_16_19 + 106 x_16_19 + 106 x_16_19
   + 106 x_16_19 + 106 x_16_19 + 106 x_16_19 + 106 x_16_19 + 106 x_16_19
   + 106 x_16_19 + 106 x_16_19 + 106 x_16_19 + 106 x_16_19 + 106 x_16_19
   + 106 x_16_19 + 106 x_16_19 + 106 x_16_19 + 106 x_16_19 + 106 x_16_19
   + 106 x_16_19 + 106 x_16_19 + 106 x_16_19 + 106 x_16_19 + 106 x_16_19
   + 106 x_16_19 + 106 x_16_19 + 106 x_16_19 + 106 x_16_19 + 106 x_16_19
   + 106 x_16_19 + 106 x_16_19 + 106 x_16_19 + 106 x_16_19 + 106 x_16_19
   + 106 x_16_19 + 106 x_16_19 + 106 x_16_19 + 106 x_16_19 + 106 x_16_19
   + 106 x_16_19 + 106 x_16_19 + 106 x_16_19 + 106 x_16_19 + 106 x_16_19
   + 106 x_16_19 + 106 x_16_19 + 106 x_16_19 + 106 x_16_19 + 106 x_16_19
   + 106 x_16_19 + 106 x_16_19 + 106 x_16_19 + 106 x_16_19 + 106 x_16_19
   + 106 x_16_19 + 106 x_16_19 + 106 x_16_19 + 106 x_16_19 + 106 x_16_19
   + 106 x_16_19 + 106 x_16_19 + 106 x_16_19 + 106 x_16_19 + 106 x_16_19
   + 106 x_16_19 + 106 x_16_19 + 106 x_16_19 + 106 x_16_19 + 106 x_16_19
   + 106 x_16_19 + 106 x_16_19 + 106 x_16_19 + 106 x_16_19 + 106 x_16_19
   + 106 x_16_19 + 106 x_16_19 + 106 x_16_19 + 106 x_16_19 + 106 x_16_19
   + 106 x_16_19 + 106 x_16_19 + 106 x_16_19 + 106 x_16_19 + 106 x_16_19
   + 106 x_16_19 + 106 x_16_19 + 106 x_16_19 + 106 x_16_19 + 106 x_16_19
   + 106 x_16_19 + 106 x_16_19 + 106 x_16_19 + 106 x_16_19 + 106 x_16_19
   + 106 x_16_19 + 106 x_16_19 + 106 x_16_19 + 106 x_16_19 + 106 x_16_19
   + 106 x_16_19 + 106 x_16_19 + 106 x_16_19 + 106 x_16_19 + 106 x_16_19
   + 106 x_16_19 + 106 x_16_19 + 106 x_16_19 + 106 x_16_19 + 106 x_16_19
   + 106 x_16_19 + 106 x_16_19 + 106 x_16_19 + 106 x_16_19 + 106 x_16_19
   + 106 x_16_19 + 106 x_16_19 + 106 x_16_19 + 106 x_16_19 + 106 x_16_19
   + 106 x_16_19 + 106 x_16_19 + 106 x_16_19 + 106 x_16_19 + 106 x_16_19
   + 106 x_16_19 + 106 x_16_19 + 106 x_16_19 + 106 x_16_19 + 106 x_16_19
   + 106 x_16_19 + 106 x_16_19 + 106 x_16_19 + 106 x_16_19 + 106 x_16_19
   + 106 x_16_19 + 106 x_16_19 + 106 x_16_19 + 106 x_16_19 + 106 x_16_19
   + 106 x_16_19 + 106 x_16_19 + 106 x_16_19 + 106 x_16_19 + 106 x_16_19
   + 106 x_16_19 + 106 x_16_19 + 106 x_16_19 + 106 x_16_19 + 106 x_16_19
   + 106 x_16_19 + 106 x_16_19 + 106 x_16_19 + 106 x_16_19 + 106 x_16_19
   + 106 x_16_19 + 106 x_16_19 + 106 x_16_19 + 106 x_16_19 + 106 x_16_19
   + 106 x_16_19 + 106 x_16_19 + 106 x_16_19 + 106 x_16_19 + 106 x_16_19
   + 106 x_16_19 + 106 x_16_19 + 106 x_16_19 + 106 x_16_19 + 106 x_16_19
   + 106 x_16_19 + 106 x_16_19 + 106 x_16_19 + 106 x_16_19 + 106 x_16_19
   + 106 x_16_19 + 106 x_16_19 + 106 x_16_19 + 106 x_16_19 + 106 x_16_19
   + 106 x_16_19 + 106 x_16_19 + 106 x_16_19 + 106 x_16_19 + 106 x_16_19
   + 106 x_16_19 + 106 x_16_19 + 106 x_16_19 + 106 x_16_19 + 106 x_16_19
   + 106 x_16_19 + 106 x_16_19 + 106 x_16_19 + 106 x_16_19 + 106 x_16_19
   + 106 x_16_19 + 106 x_16_19 + 106 x_16_19 + 106 x_16_19 + 106 x_16_19
   + 106 x_16_19 + 106 x_16_19 + 106 x_16_19 + 106 x_16_19 + 106 x_16_19
   + 106 x_16_19 + 106 x_16_19 + 106 x_16_19 + 106 x_16_19 + 106 x_16_19
   + 106 x_16_19 + 106 x_16_19 + 106 x_16_19 + 106 x_16_19 + 106 x_16_19
   + 106 x_16_19 + 106 x_16_19 + 106 x_16_19 + 106 x_16_19 + 106 x_16_19
   + 106 x_16_19 + 106 x_16_19 + 106 x_16_19 + 106 x_16_19 + 106 x_16_19
   + 106 x_16_19 + 106 x_16_19 + 106 x_16_19 + 106 x_16_19 + 106 x_16_19
   + 106 x_16_19 + 106 x_16_19 + 106 x_16_19 + 106 x_16_19 + 106 x_16_19
   + 106 x_16_19 + 106 x_16_19 + 106 x_16_19 + 106 x_16_19 + 106 x_16_19
   + 106 x_16_19 + 106 x_16_19 + 106 x_16_19 + 106 x_16_19 + 106 x_16_19
   + 106 x_16_19 + 106 x_16_19 + 106 x_16_19 + 106 x_16_19 + 106 x_16_19
   + 106 x_16_19 + 106 x_16_19 + 106 x_16_19 + 106 x_16_19 + 106 x_16_19
   + 106 x_16_19 + 106 x_16_19 + 106 x_16_19 + 106 x_16_19 + 106 x_16_19
   + 106 x_16_19 + 106 x_16_19 + 106 x_16_19 + 106 x_16_19 + 106 x_16_19
   + 106 x_16_19 + 106 x_16_19 + 106 x_16_19 + 106 x_16_19 + 106 x_16_19
   + 106 x_16_19 + 106 x_16_19 + 106 x_16_19 + 106 x_16_19 + 106 x_16_19
   + 106 x_16_19 + 106 x_16_19 + 106 x_16_19 + 106 x_16_19 + 106 x_16_19
   + 106 x_16_19 + 106 x_16_19 + 106 x_16_19 + 106 x_16_19 + 106 x_16_19
   + 106 x_16_19 + 106 x_16_19 + 106 x_16_19 + 106 x_16_19 + 106 x_16_19
   + 106 x_16_19 + 106 x_16_19 + 106 x_16_19 + 106 x_16_19 + 106 x_16_19
   + 106 x_16_19 + 106 x_16_19 + 106 x_16_19 + 106 x_16_19 + 106 x_16_19
   + 106 x_16_19 + 106 x_16_19 + 106 x_16_19 + 106 x_16_19 + 106 x_16_19
   + 106 x_16_19 + 106 x_16_19 + 106 x_16_19 + 106 x_16_19 + 106 x_16_19
   + 106 x_16_19 + 106 x_16_19 + 106 x_16_19 + 106 x_16_19 + 106 x_16_19
   + 106 x_16_19 + 106 x_16_19 + 106 x_16_19 + 106 x_16_19 + 106 x_16_19
   + 106 x_16_19 + 106 x_16_19 + 106 x_16_19 + 106 x_16_19 + 106 x_16_19
   + 106 x_16_19 + 106 x_16_19 + 106 x_16_19 + 106 x_16_19 + 106 x_16_19
   + 106 x_16_19 + 106 x_16_19 + 106 x_16_19 + 106 x_16_19 + 106 x_16_19
   + 106 x_16_19 + 106 x_16_19 + 106 x_16_19 + 106 x_16_19 + 106 x_16_19
   + 106 x_16_19 + 106 x_16_19 + 106 x_16_19 + 106 x_16_19 + 106 x_16_19
   + 106 x_16_19 + 106 x_16_19 + 106 x_16_19 + 106 x_16_19 + 106 x_16_19
   + 106 x_16_19 + 106 x_16_19 + 106 x_16_19 + 106 x_16_19 + 106 x_16_19
   + 106 x_16_19 + 106 x_16_19 + 106 x_16_19 + 106 x_16_19 + 106 x_16_19
   + 106 x_16_19 + 106 x_16_19 + 106 x_16_19 + 106 x_16_19 + 106 x_16_19
   + 106 x_16_19 + 106 x_16_19 + 106 x_16_19 + 106 x_16_19 + 106 x_16_19
   + 106 x_16_19 + 106 x_16_19 + 106 x_16_19 + 106 x_16_19 + 106 x_16_19
   + 106 x_16_19 + 106 x_16_19 + 106 x_16_19 + 106 x_16_19 + 106 x_16_19
   + 106 x_16_19 + 106 x_16_19 + 106 x_16_19 + 106 x_16_19 + 106 x_16_19
   + 106 x_16_19 + 106 x_16_19 + 106 x_16_19 + 106 x_16_19 + 106 x_16_19
   + 106 x_16_19 + 106 x_16_19 + 106 x_16_19 + 106 x_16_19 + 106 x_16_19
   + 106 x_16_19 + 106 x_16_19 + 106 x_16_19 + 106 x_16_19 + 106 x_16_19
   + 106 x_16_19 + 106 x_16_19 + 106 x_16_19 + 106 x_16_19 + 106 x_16_19
   + 106 x_16_19 + 106 x_16_19 + 106 x_16_19 + 106 x_16_19 + 106 x_16_19
   + 106 x_16_19 + 106 x_16_19 + 106 x_16_19 + 106 x_16_19 + 106 x_16_19
   + 106 x_16_19 + 106 x_16_19 + 106 x_16_19 + 106 x_16_19 + 106 x_16_19
   + 106 x_16_19 + 106 x_16_19 + 106 x_16_19 + 106 x_16_19 + 106 x_16_19
   + 106 x_16_19 + 106 x_16_19 + 106 x_16_19 + 106 x_16_19 + 106 x_16_19
   + 106 x_16_19 + 106 x_16_19 + 106 x_16_19 + 106 x_16_19 + 106 x_16_19
   + 106 x_16_19 + 106 x_16_19 + 106 x_16_19 + 106 x_16_19 + 106 x_16_19
   + 106 x_16_19 + 106 x_16_19 + 106 x_16_19 + 106 x_16_19 + 106 x_16_19
   + 106 x_16_19 + 106 x_16_19 + 106 x_16_19 + 106 x_16_19 + 106 x_16_19
   + 106 x_16_19 + 106 x_16_19 + 106 x_16_19 + 106 x_16_19 + 106 x_16_19
   + 106 x_16_19 + 106 x_16_19 + 106 x_16_19 + 106 x_16_19 + 106 x_16_19
   + 106 x_16_19 + 106 x_16_19 + 106 x_16_19 + 106 x_16_19 + 106 x_16_19
   + 106 x_16_19 + 106 x_16_19 + 106 x_16_19 + 106 x_16_19 + 106 x_16_19
   + 106 x_16_19 + 106 x_16_19 + 106 x_16_19 + 106 x_16_19 + 106 x_16_19
   + 106 x_16_19 + 106 x_16_19 + 106 x_16_19 + 106 x_16_19 + 106 x_16_19
   + 106 x_16_19 + 106 x_16_19 + 106 x_16_19 + 106 x_16_19 + 106 x_16_19
   + 106 x_16_19 + 106 x_16_19 + 106 x_16_19 + 106 x_16_19 + 106 x_16_19
   + 106 x_16_19 + 106 x_16_19 + 106 x_16_19 + 106 x_16_19 + 106 x_16_19
   + 106 x_16_19 + 106 x_16_19 + 106 x_16_19 + 106 x_16_19 + 106 x_16_19
   + 106 x_16_19 + 106 x_16_19 + 106 x_16_19 + 106 x_16_19 + 106 x_16_19
   + 106 x_16_19 + 106 x_16_19 + 106 x_16_19 + 106 x_16_19 + 106 x_16_19
   + 106 x_16_19 + 106 x_16_19 + 106 x_16_19 + 106 x_16_19 + 106 x_16_19
   + 106 x_16_19 + 106 x_16_19 + 106 x_16_19 + 106 x_16_19 + 106 x_16_19
   + 106 x_16_19 + 106 x_16_19 + 106 x_16_19 + 106 x_16_19 + 106 x_16_19
   + 106 x_16_19 + 106 x_16_19 + 106 x_16_19 + 106 x_16_19 + 106 x_16_19
   + 106 x_16_19 + 106 x_16_19 + 106 x_16_19 + 106 x_16_19 + 106 x_16_19
   + 106 x_16_19 + 106 x_16_19 + 106 x_16_19 + 106 x_16_19 + 106 x_16_19
   + 106 x_16_19 + 106 x_16_19 + 106 x_16_19 + 106 x_16_19 + 106 x_16_19
   + 106 x_16_19 + 106 x_16_19 + 106 x_16_19 + 106 x_16_19 + 106 x_16_19
   + 106 x_16_19 + 106 x_16_19 + 106 x_16_19 + 106 x_16_19 + 106 x_16_19
   + 106 x_16_19 + 106 x_16_19 + 106 x_16_19 + 106 x_16_19 + 106 x_16_19
   + 106 x_16_19 + 106 x_16_19 + 106 x_16_19 + 106 x_16_19 + 106 x_16_19
   + 106 x_16_19 + 106 x_16_19 + 106 x_16_19 + 106 x_16_19 + 106 x_16_19
   + 106 x_16_19 + 106 x_16_19 + 106 x_16_19 + 106 x_16_19 + 106 x_16_19
   + 106 x_16_19 + 106 x_16_19 + 106 x_16_19 + 106 x_16_19 + 106 x_16_19
   + 106 x_16_19 + 106 x_16_19 + 106 x_16_19 + 106 x_16_19 + 106 x_16_19
   + 106 x_16_19 + 106 x_16_19 + 106 x_16_19 + 106 x_16_19 + 106 x_16_19
   + 106 x_16_19 + 106 x_16_19 + 106 x_16_19 + 106 x_16_19 + 106 x_16_19
   + 106 x_16_19 + 106 x_16_19 + 106 x_16_19 + 106 x_16_19 + 106 x_16_19
   + 106 x_16_19 + 106 x_16_19 + 106 x_16_19 + 106 x_16_19 + 106 x_16_19
   + 106 x_16_19 + 106 x_16_19 + 106 x_16_19 + 106 x_16_19 + 106 x_16_19
   + 106 x_16_19 + 106 x_16_19 + 106 x_16_19 + 106 x_16_19 + 106 x_16_19
   + 106 x_16_19 + 106 x_16_19 + 106 x_16_19 + 106 x_16_19 + 106 x_16_19
   + 106 x_16_19 + 106 x_16_19 + 106 x_16_19 + 106 x_16_19 + 106 x_16_19
   + 106 x_16_19 + 106 x_16_19 + 106 x_16_19 + 106 x_16_19 + 106 x_16_19
   + 106 x_16_19 + 106 x_16_19 + 106 x_16_19 + 106 x_16_19 + 106 x_16_19
   + 106 x_16_19 + 106 x_16_19 + 106 x_16_19 + 106 x_16_19 + 106 x_16_19
   + 106 x_16_19 + 106 x_16_19 + 106 x_16_19 + 106 x_16_19 + 106 x_16_19
   + 106 x_16_19 + 106 x_16_19 + 106 x_16_19 + 106 x_16_19 + 106 x_16_19
   + 106 x_16_19 + 106 x_16_19 + 106 x_16_19 + 106 x_16_19 + 106 x_16_19
   + 106 x_16_19 + 106 x_16_19 + 106 x_16_19 + 106 x_16_19 + 106 x_16_19
   + 106 x_16_19 + 106 x_16_19 + 106 x_16_19 + 106 x_16_19 + 106 x_16_19
   + 106 x_16_19 + 106 x_16_19 + 106 x_16_19 + 106 x_16_19 + 106 x_16_19
   + 106 x_16_19 + 106 x_16_19 + 106 x_16_19 + 106 x_16_19 + 106 x_16_19
   + 106 x_16_19 + 106 x_16_19 + 106 x_16_19 + 106 x_16_19 + 106 x_16_19
   + 106 x_16_19 + 106 x_16_19 + 106 x_16_19 + 106 x_16_19 + 106 x_16_19
   + 106 x_16_19 + 106 x_16_19 + 106 x_16_19 + 106 x_16_19 + 106 x_16_19
   + 589 Constant
Subject To
 c_0: y_0 = 1
 c_1_0: y_0 >= 1
 c_1_1: y_1 >= 1
 c_1_2: y_2 >= 1
 c_1_3: y_3 >= 1
 c_1_4: y_4 >= 1
 c_1_5: y_5 >= 1
 c_1_6: y_6 >= 1
 c_1_7: y_7 >= 1
 c_1_8: y_8 >= 1
 c_1_9: y_9 >= 1
 c_1_10: y_10 >= 1
 c_1_11: y_11 >= 1
 c_1_12: y_12 >= 1
 c_1_13: y_13 >= 1
 c_1_14: y_14 >= 1
 c_1_15: y_15 >= 1
 c_1_16: y_16 >= 1
 c_1_17: y_17 >= 1
 c_1_18: y_18 >= 1
 c_1_19: y_19 >= 1
 c_2_0: - 2 y_0 + x_0_2 + x_0_4 + x_0_5 + x_0_6 + x_0_7 + x_0_8 + x_0_9
   + x_0_10 + x_0_12 + x_0_13 + x_0_16 + x_0_17 + x_0_18 = 0
 c_2_1: - 2 y_1 + x_1_2 + x_1_4 + x_1_5 + x_1_6 + x_1_11 + x_1_12 + x_1_14
   + x_1_15 + x_1_16 + x_1_17 + x_1_19 = 0
 c_2_2: - 2 y_2 + x_0_2 + x_1_2 + x_2_3 + x_2_4 + x_2_5 + x_2_8 + x_2_9
   + x_2_10 + x_2_11 + x_2_12 + x_2_14 + x_2_15 + x_2_16 + x_2_17 + x_2_18
   + x_2_19 = 0
 c_2_3: - 2 y_3 + x_2_3 + x_3_4 + x_3_7 + x_3_9 + x_3_10 + x_3_11 + x_3_12
   + x_3_13 + x_3_14 + x_3_15 + x_3_16 + x_3_18 + x_3_19 = 0
 c_2_4: - 2 y_4 + x_0_4 + x_1_4 + x_2_4 + x_3_4 + x_4_8 + x_4_9 + x_4_10
   + x_4_11 + x_4_13 + x_4_16 + x_4_18 = 0
 c_2_5: - 2 y_5 + x_0_5 + x_1_5 + x_2_5 + x_5_6 + x_5_7 + x_5_8 + x_5_10
   + x_5_11 + x_5_13 + x_5_14 + x_5_16 + x_5_18 + x_5_19 = 0
 c_2_6: - 2 y_6 + x_0_6 + x_1_6 + x_5_6 + x_6_7 + x_6_9 + x_6_10 + x_6_11
   + x_6_13 + x_6_14 + x_6_16 + x_6_17 + x_6_18 + x_6_19 = 0
 c_2_7: - 2 y_7 + x_0_7 + x_3_7 + x_5_7 + x_6_7 + x_7_8 + x_7_9 + x_7_10
   + x_7_11 + x_7_13 + x_7_14 + x_7_15 + x_7_16 + x_7_17 + x_7_18 + x_7_19
   = 0
 c_2_8: - 2 y_8 + x_0_8 + x_2_8 + x_4_8 + x_5_8 + x_7_8 + x_8_9 + x_8_10
   + x_8_12 + x_8_13 + x_8_14 + x_8_15 + x_8_17 + x_8_19 = 0
 c_2_9: - 2 y_9 + x_0_9 + x_2_9 + x_3_9 + x_4_9 + x_6_9 + x_7_9 + x_8_9
   + x_9_10 + x_9_12 + x_9_13 + x_9_14 + x_9_17 = 0
 c_2_10: - 2 y_10 + x_0_10 + x_2_10 + x_3_10 + x_4_10 + x_5_10 + x_6_10
   + x_7_10 + x_8_10 + x_9_10 + x_10_11 + x_10_12 + x_10_16 + x_10_17
   + x_10_18 + x_10_19 = 0
 c_2_11: - 2 y_11 + x_1_11 + x_2_11 + x_3_11 + x_4_11 + x_5_11 + x_6_11
   + x_7_11 + x_10_11 + x_11_12 + x_11_13 + x_11_14 + x_11_15 + x_11_16
   + x_11_17 + x_11_18 + x_11_19 = 0
 c_2_12: - 2 y_12 + x_0_12 + x_1_12 + x_2_12 + x_3_12 + x_8_12 + x_9_12
   + x_10_12 + x_11_12 + x_12_15 + x_12_16 + x_12_17 + x_12_18 + x_12_19
   = 0
 c_2_13: - 2 y_13 + x_0_13 + x_3_13 + x_4_13 + x_5_13 + x_6_13 + x_7_13
   + x_8_13 + x_9_13 + x_11_13 + x_13_15 + x_13_17 + x_13_19 = 0
 c_2_14: - 2 y_14 + x_1_14 + x_2_14 + x_3_14 + x_5_14 + x_6_14 + x_7_14
   + x_8_14 + x_9_14 + x_11_14 + x_14_15 + x_14_16 + x_14_18 + x_14_19 = 0
 c_2_15: - 2 y_15 + x_1_15 + x_2_15 + x_3_15 + x_7_15 + x_8_15 + x_11_15
   + x_12_15 + x_13_15 + x_14_15 + x_15_16 + x_15_17 + x_15_18 = 0
 c_2_16: - 2 y_16 + x_0_16 + x_1_16 + x_2_16 + x_3_16 + x_4_16 + x_5_16
   + x_6_16 + x_7_16 + x_10_16 + x_11_16 + x_12_16 + x_14_16 + x_15_16
   + x_16_17 + x_16_18 + 1201 x_16_19 = 0
 c_2_17: - 2 y_17 + x_0_17 + x_1_17 + x_2_17 + x_6_17 + x_7_17 + x_8_17
   + x_9_17 + x_10_17 + x_11_17 + x_12_17 + x_13_17 + x_15_17 + x_16_17
   = 0
 c_2_18: - 2 y_18 + x_0_18 + x_2_18 + x_3_18 + x_4_18 + x_5_18 + x_6_18
   + x_7_18 + x_10_18 + x_11_18 + x_12_18 + x_14_18 + x_15_18 + x_16_18
   = 0
 c_2_19: - 2 y_19 + x_1_19 + x_2_19 + x_3_19 + x_5_19 + x_6_19 + x_7_19
   + x_8_19 + x_10_19 + x_11_19 + x_12_19 + x_13_19 + x_14_19
   + 1201 x_16_19 = 0
Bounds
 Constant = 1
Binaries
 y_0 y_1 y_2 y_3 y_4 y_5 y_6 y_7 y_8 y_9 y_10 y_11 y_12 y_13 y_14 y_15 y_16
 y_17 y_18 y_19 x_0_2 x_0_4 x_0_5 x_0_6 x_0_7 x_0_8 x_0_9 x_0_10 x_0_12
 x_0_13 x_0_16 x_0_17 x_0_18 x_1_2 x_1_4 x_1_5 x_1_6 x_1_11 x_1_12 x_1_14
 x_1_15 x_1_16 x_1_17 x_1_19 x_2_3 x_2_4 x_2_5 x_2_8 x_2_9 x_2_10 x_2_11
 x_2_12 x_2_14 x_2_15 x_2_16 x_2_17 x_2_18 x_2_19 x_3_4 x_3_7 x_3_9 x_3_10
 x_3_11 x_3_12 x_3_13 x_3_14 x_3_15 x_3_16 x_3_18 x_3_19 x_4_8 x_4_9 x_4_10
 x_4_11 x_4_13 x_4_16 x_4_18 x_5_6 x_5_7 x_5_8 x_5_10 x_5_11 x_5_13 x_5_14
 x_5_16 x_5_18 x_5_19 x_6_7 x_6_9 x_6_10 x_6_11 x_6_13 x_6_14 x_6_16 x_6_17
 x_6_18 x_6_19 x_7_8 x_7_9 x_7_10 x_7_11 x_7_13 x_7_14 x_7_15 x_7_16 x_7_17
 x_7_18 x_7_19 x_8_9 x_8_10 x_8_12 x_8_13 x_8_14 x_8_15 x_8_17 x_8_19
 x_9_10 x_9_12 x_9_13 x_9_14 x_9_17 x_10_11 x_10_12 x_10_16 x_10_17 x_10_18
 x_10_19 x_11_12 x_11_13 x_11_14 x_11_15 x_11_16 x_11_17 x_11_18 x_11_19
 x_12_15 x_12_16 x_12_17 x_12_18 x_12_19 x_13_15 x_13_17 x_13_19 x_14_15
 x_14_16 x_14_18 x_14_19 x_15_16 x_15_17 x_15_18 x_16_17 x_16_18 x_16_19
 x_16_19 x_16_19 x_16_19 x_16_19 x_16_19 x_16_19 x_16_19 x_16_19 x_16_19
 x_16_19 x_16_19 x_16_19 x_16_19 x_16_19 x_16_19 x_16_19 x_16_19 x_16_19
 x_16_19 x_16_19 x_16_19 x_16_19 x_16_19 x_16_19 x_16_19 x_16_19 x_16_19
 x_16_19 x_16_19 x_16_19 x_16_19 x_16_19 x_16_19 x_16_19 x_16_19 x_16_19
 x_16_19 x_16_19 x_16_19 x_16_19 x_16_19 x_16_19 x_16_19 x_16_19 x_16_19
 x_16_19 x_16_19 x_16_19 x_16_19 x_16_19 x_16_19 x_16_19 x_16_19 x_16_19
 x_16_19 x_16_19 x_16_19 x_16_19 x_16_19 x_16_19 x_16_19 x_16_19 x_16_19
 x_16_19 x_16_19 x_16_19 x_16_19 x_16_19 x_16_19 x_16_19 x_16_19 x_16_19
 x_16_19 x_16_19 x_16_19 x_16_19 x_16_19 x_16_19 x_16_19 x_16_19 x_16_19
 x_16_19 x_16_19 x_16_19 x_16_19 x_16_19 x_16_19 x_16_19 x_16_19 x_16_19
 x_16_19 x_16_19 x_16_19 x_16_19 x_16_19 x_16_19 x_16_19 x_16_19 x_16_19
 x_16_19 x_16_19 x_16_19 x_16_19 x_16_19 x_16_19 x_16_19 x_16_19 x_16_19
 x_16_19 x_16_19 x_16_19 x_16_19 x_16_19 x_16_19 x_16_19 x_16_19 x_16_19
 x_16_19 x_16_19 x_16_19 x_16_19 x_16_19 x_16_19 x_16_19 x_16_19 x_16_19
 x_16_19 x_16_19 x_16_19 x_16_19 x_16_19 x_16_19 x_16_19 x_16_19 x_16_19
 x_16_19 x_16_19 x_16_19 x_16_19 x_16_19 x_16_19 x_16_19 x_16_19 x_16_19
 x_16_19 x_16_19 x_16_19 x_16_19 x_16_19 x_16_19 x_16_19 x_16_19 x_16_19
 x_16_19 x_16_19 x_16_19 x_16_19 x_16_19 x_16_19 x_16_19 x_16_19 x_16_19
 x_16_19 x_16_19 x_16_19 x_16_19 x_16_19 x_16_19 x_16_19 x_16_19 x_16_19
 x_16_19 x_16_19 x_16_19 x_16_19 x_16_19 x_16_19 x_16_19 x_16_19 x_16_19
 x_16_19 x_16_19 x_16_19 x_16_19 x_16_19 x_16_19 x_16_19 x_16_19 x_16_19
 x_16_19 x_16_19 x_16_19 x_16_19 x_16_19 x_16_19 x_16_19 x_16_19 x_16_19
 x_16_19 x_16_19 x_16_19 x_16_19 x_16_19 x_16_19 x_16_19 x_16_19 x_16_19
 x_16_19 x_16_19 x_16_19 x_16_19 x_16_19 x_16_19 x_16_19 x_16_19 x_16_19
 x_16_19 x_16_19 x_16_19 x_16_19 x_16_19 x_16_19 x_16_19 x_16_19 x_16_19
 x_16_19 x_16_19 x_16_19 x_16_19 x_16_19 x_16_19 x_16_19 x_16_19 x_16_19
 x_16_19 x_16_19 x_16_19 x_16_19 x_16_19 x_16_19 x_16_19 x_16_19 x_16_19
 x_16_19 x_16_19 x_16_19 x_16_19 x_16_19 x_16_19 x_16_19 x_16_19 x_16_19
 x_16_19 x_16_19 x_16_19 x_16_19 x_16_19 x_16_19 x_16_19 x_16_19 x_16_19
 x_16_19 x_16_19 x_16_19 x_16_19 x_16_19 x_16_19 x_16_19 x_16_19 x_16_19
 x_16_19 x_16_19 x_16_19 x_16_19 x_16_19 x_16_19 x_16_19 x_16_19 x_16_19
 x_16_19 x_16_19 x_16_19 x_16_19 x_16_19 x_16_19 x_16_19 x_16_19 x_16_19
 x_16_19 x_16_19 x_16_19 x_16_19 x_16_19 x_16_19 x_16_19 x_16_19 x_16_19
 x_16_19 x_16_19 x_16_19 x_16_19 x_16_19 x_16_19 x_16_19 x_16_19 x_16_19
 x_16_19 x_16_19 x_16_19 x_16_19 x_16_19 x_16_19 x_16_19 x_16_19 x_16_19
 x_16_19 x_16_19 x_16_19 x_16_19 x_16_19 x_16_19 x_16_19 x_16_19 x_16_19
 x_16_19 x_16_19 x_16_19 x_16_19 x_16_19 x_16_19 x_16_19 x_16_19 x_16_19
 x_16_19 x_16_19 x_16_19 x_16_19 x_16_19 x_16_19 x_16_19 x_16_19 x_16_19
 x_16_19 x_16_19 x_16_19 x_16_19 x_16_19 x_16_19 x_16_19 x_16_19 x_16_19
 x_16_19 x_16_19 x_16_19 x_16_19 x_16_19 x_16_19 x_16_19 x_16_19 x_16_19
 x_16_19 x_16_19 x_16_19 x_16_19 x_16_19 x_16_19 x_16_19 x_16_19 x_16_19
 x_16_19 x_16_19 x_16_19 x_16_19 x_16_19 x_16_19 x_16_19 x_16_19 x_16_19
 x_16_19 x_16_19 x_16_19 x_16_19 x_16_19 x_16_19 x_16_19 x_16_19 x_16_19
 x_16_19 x_16_19 x_16_19 x_16_19 x_16_19 x_16_19 x_16_19 x_16_19 x_16_19
 x_16_19 x_16_19 x_16_19 x_16_19 x_16_19 x_16_19 x_16_19 x_16_19 x_16_19
 x_16_19 x_16_19 x_16_19 x_16_19 x_16_19 x_16_19 x_16_19 x_16_19 x_16_19
 x_16_19 x_16_19 x_16_19 x_16_19 x_16_19 x_16_19 x_16_19 x_16_19 x_16_19
 x_16_19 x_16_19 x_16_19 x_16_19 x_16_19 x_16_19 x_16_19 x_16_19 x_16_19
 x_16_19 x_16_19 x_16_19 x_16_19 x_16_19 x_16_19 x_16_19 x_16_19 x_16_19
 x_16_19 x_16_19 x_16_19 x_16_19 x_16_19 x_16_19 x_16_19 x_16_19 x_16_19
 x_16_19 x_16_19 x_16_19 x_16_19 x_16_19 x_16_19 x_16_19 x_16_19 x_16_19
 x_16_19 x_16_19 x_16_19 x_16_19 x_16_19 x_16_19 x_16_19 x_16_19 x_16_19
 x_16_19 x_16_19 x_16_19 x_16_19 x_16_19 x_16_19 x_16_19 x_16_19 x_16_19
 x_16_19 x_16_19 x_16_19 x_16_19 x_16_19 x_16_19 x_16_19 x_16_19 x_16_19
 x_16_19 x_16_19 x_16_19 x_16_19 x_16_19 x_16_19 x_16_19 x_16_19 x_16_19
 x_16_19 x_16_19 x_16_19 x_16_19 x_16_19 x_16_19 x_16_19 x_16_19 x_16_19
 x_16_19 x_16_19 x_16_19 x_16_19 x_16_19 x_16_19 x_16_19 x_16_19 x_16_19
 x_16_19 x_16_19 x_16_19 x_16_19 x_16_19 x_16_19 x_16_19 x_16_19 x_16_19
 x_16_19 x_16_19 x_16_19 x_16_19 x_16_19 x_16_19 x_16_19 x_16_19 x_16_19
 x_16_19 x_16_19 x_16_19 x_16_19 x_16_19 x_16_19 x_16_19 x_16_19 x_16_19
 x_16_19 x_16_19 x_16_19 x_16_19 x_16_19 x_16_19 x_16_19 x_16_19 x_16_19
 x_16_19 x_16_19 x_16_19 x_16_19 x_16_19 x_16_19 x_16_19 x_16_19 x_16_19
 x_16_19 x_16_19 x_16_19 x_16_19 x_16_19 x_16_19 x_16_19 x_16_19 x_16_19
 x_16_19 x_16_19 x_16_19 x_16_19 x_16_19 x_16_19 x_16_19 x_16_19 x_16_19
 x_16_19 x_16_19 x_16_19 x_16_19 x_16_19 x_16_19 x_16_19 x_16_19 x_16_19
 x_16_19 x_16_19 x_16_19 x_16_19 x_16_19 x_16_19 x_16_19 x_16_19 x_16_19
 x_16_19 x_16_19 x_16_19 x_16_19 x_16_19 x_16_19 x_16_19 x_16_19 x_16_19
 x_16_19 x_16_19 x_16_19 x_16_19 x_16_19 x_16_19 x_16_19 x_16_19 x_16_19
 x_16_19 x_16_19 x_16_19 x_16_19 x_16_19 x_16_19 x_16_19 x_16_19 x_16_19
 x_16_19 x_16_19 x_16_19 x_16_19 x_16_19 x_16_19 x_16_19 x_16_19 x_16_19
 x_16_19 x_16_19 x_16_19 x_16_19 x_16_19 x_16_19 x_16_19 x_16_19 x_16_19
 x_16_19 x_16_19 x_16_19 x_16_19 x_16_19 x_16_19 x_16_19 x_16_19 x_16_19
 x_16_19 x_16_19 x_16_19 x_16_19 x_16_19 x_16_19 x_16_19 x_16_19 x_16_19
 x_16_19 x_16_19 x_16_19 x_16_19 x_16_19 x_16_19 x_16_19 x_16_19 x_16_19
 x_16_19 x_16_19 x_16_19 x_16_19 x_16_19 x_16_19 x_16_19 x_16_19 x_16_19
 x_16_19 x_16_19 x_16_19 x_16_19 x_16_19 x_16_19 x_16_19 x_16_19 x_16_19
 x_16_19 x_16_19 x_16_19 x_16_19 x_16_19 x_16_19 x_16_19 x_16_19 x_16_19
 x_16_19 x_16_19 x_16_19 x_16_19 x_16_19 x_16_19 x_16_19 x_16_19 x_16_19
 x_16_19 x_16_19 x_16_19 x_16_19 x_16_19 x_16_19 x_16_19 x_16_19 x_16_19
 x_16_19 x_16_19 x_16_19 x_16_19 x_16_19 x_16_19 x_16_19 x_16_19 x_16_19
 x_16_19 x_16_19 x_16_19 x_16_19 x_16_19 x_16_19 x_16_19 x_16_19 x_16_19
 x_16_19 x_16_19 x_16_19 x_16_19 x_16_19 x_16_19 x_16_19 x_16_19 x_16_19
 x_16_19 x_16_19 x_16_19 x_16_19 x_16_19 x_16_19 x_16_19 x_16_19 x_16_19
 x_16_19 x_16_19 x_16_19 x_16_19 x_16_19 x_16_19 x_16_19 x_16_19 x_16_19
 x_16_19 x_16_19 x_16_19 x_16_19 x_16_19 x_16_19 x_16_19 x_16_19 x_16_19
 x_16_19 x_16_19 x_16_19 x_16_19 x_16_19 x_16_19 x_16_19 x_16_19 x_16_19
 x_16_19 x_16_19 x_16_19 x_16_19 x_16_19 x_16_19 x_16_19 x_16_19 x_16_19
 x_16_19 x_16_19 x_16_19 x_16_19 x_16_19 x_16_19 x_16_19 x_16_19 x_16_19
 x_16_19 x_16_19 x_16_19 x_16_19 x_16_19 x_16_19 x_16_19 x_16_19 x_16_19
 x_16_19 x_16_19 x_16_19 x_16_19 x_16_19 x_16_19 x_16_19 x_16_19 x_16_19
 x_16_19 x_16_19 x_16_19 x_16_19 x_16_19 x_16_19 x_16_19 x_16_19 x_16_19
 x_16_19 x_16_19 x_16_19 x_16_19 x_16_19 x_16_19 x_16_19 x_16_19 x_16_19
 x_16_19 x_16_19 x_16_19 x_16_19 x_16_19 x_16_19 x_16_19 x_16_19 x_16_19
 x_16_19 x_16_19 x_16_19 x_16_19 x_16_19 x_16_19 x_16_19 x_16_19 x_16_19
 x_16_19 x_16_19 x_16_19 x_16_19 x_16_19 x_16_19 x_16_19 x_16_19 x_16_19
 x_16_19 x_16_19 x_16_19 x_16_19 x_16_19 x_16_19 x_16_19 x_16_19 x_16_19
 x_16_19 x_16_19 x_16_19 x_16_19 x_16_19 x_16_19 x_16_19 x_16_19 x_16_19
 x_16_19 x_16_19 x_16_19 x_16_19 x_16_19 x_16_19 x_16_19 x_16_19 x_16_19
 x_16_19 x_16_19 x_16_19 x_16_19 x_16_19 x_16_19 x_16_19 x_16_19 x_16_19
 x_16_19 x_16_19 x_16_19 x_16_19 x_16_19 x_16_19 x_16_19 x_16_19 x_16_19
 x_16_19 x_16_19 x_16_19 x_16_19 x_16_19 x_16_19 x_16_19 x_16_19 x_16_19
 x_16_19 x_16_19 x_16_19 x_16_19 x_16_19 x_16_19 x_16_19 x_16_19 x_16_19
 x_16_19 x_16_19 x_16_19 x_16_19 x_16_19 x_16_19 x_16_19 x_16_19 x_16_19
 x_16_19 x_16_19 x_16_19 x_16_19 x_16_19 x_16_19 x_16_19 x_16_19 x_16_19
 x_16_19 x_16_19 x_16_19 x_16_19 x_16_19 x_16_19 x_16_19 x_16_19 x_16_19
 x_16_19 x_16_19 x_16_19 x_16_19 x_16_19 x_16_19 x_16_19 x_16_19 x_16_19
 x_16_19 x_16_19 x_16_19 x_16_19 x_16_19 x_16_19 x_16_19 x_16_19 x_16_19
 x_16_19 x_16_19 x_16_19 x_16_19 x_16_19 x_16_19 x_16_19 x_16_19 x_16_19
 x_16_19 x_16_19 x_16_19 x_16_19 x_16_19 x_16_19 x_16_19 x_16_19 x_16_19
 x_16_19 x_16_19 x_16_19 x_16_19 x_16_19 x_16_19 x_16_19 x_16_19 x_16_19
 x_16_19 x_16_19 x_16_19 x_16_19 x_16_19 x_16_19 x_16_19 x_16_19 x_16_19
 x_16_19 x_16_19 x_16_19 x_16_19 x_16_19 x_16_19 x_16_19 x_16_19 x_16_19
 x_16_19 x_16_19 x_16_19 x_16_19 x_16_19 x_16_19 x_16_19 x_16_19 x_16_19
 x_16_19 x_16_19 x_16_19 x_16_19 x_16_19 x_16_19 x_16_19 x_16_19 x_16_19
 x_16_19 x_16_19 x_16_19 x_16_19 x_16_19 x_16_19 x_16_19 x_16_19 x_16_19
 x_16_19 x_16_19 x_16_19 x_16_19 x_16_19 x_16_19 x_16_19 x_16_19 x_16_19
 x_16_19 x_16_19 x_16_19 x_16_19 x_16_19 x_16_19 x_16_19 x_16_19 x_16_19
 x_16_19 x_16_19 x_16_19 x_16_19 x_16_19 x_16_19 x_16_19 x_16_19 x_16_19
 x_16_19 x_16_19 x_16_19 x_16_19 x_16_19 x_16_19 x_16_19 x_16_19 x_16_19
 x_16_19 x_16_19 x_16_19 x_16_19 x_16_19 x_16_19 x_16_19 x_16_19 x_16_19
 x_16_19 x_16_19 x_16_19 x_16_19 x_16_19 x_16_19 x_16_19 x_16_19 x_16_19
 x_16_19 x_16_19 x_16_19 x_16_19 x_16_19 x_16_19 x_16_19 x_16_19 x_16_19
 x_16_19 x_16_19 x_16_19 x_16_19 x_16_19 x_16_19 x_16_19 x_16_19 x_16_19
 x_16_19 x_16_19 x_16_19 x_16_19 x_16_19 x_16_19 x_16_19 x_16_19 x_16_19
 x_16_19 x_16_19 x_16_19 x_16_19 x_16_19 x_16_19 x_16_19 x_16_19 x_16_19
 x_16_19 x_16_19 x_16_19 x_16_19 x_16_19 x_16_19 x_16_19 x_16_19 x_16_19
 x_16_19 x_16_19 x_16_19 x_16_19 x_16_19 x_16_19 x_16_19 x_16_19 x_16_19
 x_16_19 x_16_19 x_16_19 x_16_19 x_16_19 x_16_19 x_16_19 x_16_19 x_16_19
 x_16_19 x_16_19 x_16_19 x_16_19 x_16_19 x_16_19 x_16_19 x_16_19 x_16_19
 x_16_19 x_16_19 x_16_19 x_16_19 x_16_19 x_16_19 x_16_19 x_16_19 x_16_19
 x_16_19 x_16_19 x_16_19 x_16_19 x_16_19 x_16_19 x_16_19 x_16_19 x_16_19
 x_16_19 x_16_19 x_16_19 x_16_19 x_16_19 x_16_19 x_16_19 x_16_19 x_16_19
 x_16_19 x_16_19 x_16_19 x_16_19 x_16_19 x_16_19 x_16_19 x_16_19 x_16_19
 x_16_19 x_16_19 x_16_19
End
